France 2
5 42 0 
1 3000 758 607 439 344 839 658 540 207 591 199 765 584 293 652 145 399 461 424 466 459 549 532 617 562 519 242 418 290 156 484 205 570 196 429 463 604 425 144 78 496 220 593 
2 3000 811 636 196 138 666 434 257 298 548 416 815 556 416 471 352 627 663 341 709 177 338 302 463 723 291 497 457 286 426 737 175 696 458 704 225 498 151 292 241 238 165 776 
3 3000 97 181 738 689 686 751 915 906 341 522 103 314 409 642 558 447 363 488 490 904 690 727 575 232 720 558 328 499 624 539 619 158 590 652 731 470 803 846 649 786 865 289 
4 3000 872 707 372 297 830 609 421 122 654 361 878 654 422 635 300 568 625 457 637 329 508 477 616 715 465 413 515 353 326 654 230 711 367 593 401 632 329 116 184 416 50 754 
5 3000 497 430 699 611 896 834 858 620 532 228 504 507 251 765 292 40 48 515 106 805 734 747 703 186 735 195 350 414 285 157 469 249 241 247 708 627 730 555 413 761 637 183 
